\ENCODING=ISO-8859-1
\Problem name: TP2

Maximize
 obj1: 13 x_j1 + 14 x_j2 + x_j3 + 13 x_j4 + 3 x_j5 + 10 x_j6 + 3 x_j7 + 8 x_j8
       + 13 x_j9 + 11 x_j10
Subject To
 capacity_1: 5 x_j1 + 5 x_j2 + 9 x_j3 + 11 x_j4 + 8 x_j5 + 5 x_j6 + 3 x_j7
             + 4 x_j8 + 12 x_j9 + 9 x_j10 <= 50
 capacity_2: 5 x_j1 + x_j2 + 8 x_j3 + 8 x_j4 + 5 x_j5 + 3 x_j6 + 12 x_j7
             + 4 x_j8 + 7 x_j9 + 5 x_j10 <= 50
Bounds
 0 <= x_j1 <= 1
 0 <= x_j2 <= 1
 0 <= x_j3 <= 1
 0 <= x_j4 <= 1
 0 <= x_j5 <= 1
 0 <= x_j6 <= 1
 0 <= x_j7 <= 1
 0 <= x_j8 <= 1
 0 <= x_j9 <= 1
 0 <= x_j10 <= 1
Binaries
 x_j1  x_j2  x_j3  x_j4  x_j5  x_j6  x_j7  x_j8  x_j9  x_j10 
End
